language Essence 1.3

letting bot_end be [49, 128, 63, 35, 6, 21, 20, 87, 86, 111, 123, 44, 133, 33, 73, 88; int(1..16)]
letting bot_start be [88, 128, 17, 11, 60, 69, 136, 50, 148, 91, 0, 66, 147, 125, 32, 122; int(1..16)]
letting bots be 16
letting buffer_col be 2
letting buffer_row be 2
letting corridor_size be 1
letting n_shelves_col be 7
letting n_shelves_row be 1
letting shelf_col_size be 2
letting shelf_row_size be 1
